50 970
447 483 425 609 514 998 34 304 495 743 400 32 612 535 336 809 735 599 427 966 954 780 677 829 370 203 457 20 523 677 590 125 189 156 180 354 946 444 951 976 517 18 602 664 339 96 909 817 109 230 
274 571 61 658 535 792 560 370 584 889 6 466 919 139 383 27 896 911 628 933 176 254 279 589 407 127 933 126 624 462 596 970 382 516 895 760 423 35 223 517 258 888 489 20 898 345 876 776 938 663 
